NAME : Instance 31
COMMENT : Comment 31
TYPE : TSP
DIMENSION: 30
EDGE_WEIGHT_TYPE : EUC_2D
NODE_COORD_SECTION
  1 340 1505
  2 1931 1213
  3 1941 383
  4 1548 975
  5 454 221
  6 1562 503
  7 804 1938
  8 708 1169
  9 479 1850
  10 1742 1499
  11 651 1615
  12 1566 1209
  13 512 1704
  14 1051 284
  15 1565 1072
  16 1545 1370
  17 1714 32
  18 1421 280
  19 1038 452
  20 1395 1029
  21 1854 1502
  22 606 1913
  23 1761 738
  24 1735 686
  25 891 1301
  26 1879 936
  27 842 53
  28 1584 559
  29 697 456
  30 1715 1726
EOF
